0 31
0 38
0 51
0 82
0 91
0 99
0 107
0 116
1 10
1 73
1 86
1 118
2 5
2 24
2 70
2 100
3 6
3 23
3 28
3 32
3 93
3 98
4 16
4 32
4 57
4 88
4 97
4 107
4 119
5 46
5 83
5 95
5 101
5 114
5 117
6 119
7 9
7 19
7 21
7 31
7 45
7 58
7 75
7 77
7 82
7 92
8 9
8 15
8 34
8 37
8 47
8 81
8 89
8 108
8 110
10 14
10 46
10 97
10 114
11 43
11 46
11 65
11 73
11 88
11 116
12 24
12 46
12 48
12 56
12 100
12 115
13 108
14 17
14 21
14 36
14 43
14 83
14 108
15 52
15 75
15 87
15 100
15 102
15 111
16 22
16 25
16 67
16 84
16 91
16 93
16 102
16 119
17 64
17 85
17 96
18 39
18 52
18 57
18 62
18 70
18 72
18 75
19 47
19 88
20 25
20 34
20 65
20 84
20 105
20 111
21 30
21 33
21 66
21 83
21 94
22 57
22 69
22 74
22 76
22 92
23 51
23 72
23 105
24 30
24 31
24 69
24 79
24 97
25 50
25 118
26 33
26 74
26 89
26 104
26 109
27 34
27 44
27 45
27 61
27 103
28 44
28 64
28 87
28 110
29 39
29 44
29 45
29 54
29 61
29 65
29 87
29 92
29 95
29 100
29 118
30 37
30 39
30 58
30 63
30 78
30 87
30 88
30 91
30 105
30 107
31 38
31 49
31 76
31 79
31 90
31 107
31 118
32 90
32 116
33 37
33 64
33 68
33 101
33 115
34 54
34 99
35 42
35 57
35 78
35 97
35 108
35 118
36 42
36 49
36 59
36 63
36 69
36 70
36 79
36 85
36 95
37 71
37 75
37 103
37 108
38 39
38 49
38 81
38 89
38 108
39 57
39 59
39 68
39 75
39 84
39 90
39 107
40 74
40 80
40 105
40 113
41 50
41 63
41 68
41 79
42 64
42 71
42 84
42 86
42 118
43 47
43 76
43 89
44 101
45 49
45 68
45 87
45 118
46 75
46 84
46 97
46 104
46 107
47 79
47 100
47 111
48 54
48 61
48 99
48 101
49 50
49 56
49 77
50 59
50 72
50 96
50 101
50 105
51 62
51 63
51 90
51 103
51 114
52 66
52 76
52 82
52 90
52 95
52 99
53 83
53 96
54 80
54 83
54 108
54 113
55 94
55 101
57 82
57 116
58 84
58 113
59 70
59 74
59 90
60 91
60 98
61 68
61 115
62 98
62 104
63 74
63 75
63 82
63 91
63 95
63 105
63 108
64 86
65 87
65 90
65 108
66 114
66 117
67 90
67 119
68 101
68 111
69 88
70 79
70 89
70 98
71 84
71 91
71 110
72 117
73 86
73 92
73 101
74 111
75 80
75 85
75 103
75 108
75 111
75 114
76 104
77 79
77 101
80 90
80 102
80 107
80 112
81 97
82 87
82 88
82 106
83 88
83 89
83 112
84 115
85 100
87 88
87 97
87 115
88 102
88 103
88 108
88 109
90 98
90 119
91 95
91 105
92 103
93 106
94 112
95 106
95 114
96 107
96 113
98 107
99 103
99 105
100 108
102 117
104 109
106 107
106 109
117 118
