0 4
0 23
0 106
0 111
0 125
0 144
1 18
1 53
1 59
1 107
2 24
2 79
2 99
2 137
2 154
3 33
3 43
3 98
3 104
3 107
3 110
3 142
3 143
4 20
4 75
4 101
4 134
5 6
5 32
5 105
5 107
5 140
6 67
6 81
6 117
6 141
6 152
6 157
7 46
7 48
7 52
7 68
7 105
7 143
7 144
7 147
7 152
8 9
8 24
8 110
9 20
9 53
9 86
9 103
9 110
9 126
10 25
10 54
10 67
10 153
11 54
11 98
11 131
11 141
11 149
11 150
12 80
12 82
12 103
13 60
13 64
13 92
13 96
13 99
13 108
13 126
14 75
14 125
15 62
16 26
16 35
16 39
16 51
16 113
16 127
16 136
17 30
17 32
17 92
18 73
18 134
19 26
19 46
19 64
19 65
19 79
19 81
20 81
20 113
21 70
21 78
21 122
21 135
21 136
22 57
22 68
22 81
22 116
22 159
23 28
23 43
23 83
23 86
23 116
23 158
24 70
24 102
24 115
24 117
24 143
25 54
25 59
25 83
25 99
25 102
25 141
25 144
26 31
26 66
26 71
26 109
26 134
26 156
26 157
27 52
27 62
27 81
27 109
27 144
27 150
28 31
28 34
28 53
28 60
28 92
28 98
28 144
29 108
29 131
30 53
30 70
30 81
30 136
30 150
31 87
31 101
32 95
32 106
32 137
33 58
33 78
33 96
34 39
34 86
34 117
34 120
34 122
34 137
35 62
35 77
35 91
35 93
35 95
35 146
35 147
36 76
36 80
36 104
36 114
36 129
37 44
37 51
37 109
37 119
38 85
38 95
38 120
39 56
39 74
39 135
39 138
39 152
39 159
40 46
40 53
40 59
40 85
40 93
40 133
41 81
41 83
41 98
42 58
43 73
43 117
43 121
43 128
43 134
43 137
44 61
44 68
44 89
44 93
44 128
45 50
45 60
45 73
45 82
45 99
45 106
45 112
45 146
46 56
46 106
46 150
47 71
47 84
47 104
47 116
48 78
48 98
48 140
49 113
49 133
50 62
50 70
50 90
50 94
50 122
50 148
51 66
51 78
51 96
51 115
51 156
52 61
53 58
53 76
53 89
53 93
53 130
54 75
54 103
54 131
54 132
54 147
55 66
55 76
55 159
56 61
56 97
56 106
56 113
56 133
56 134
57 96
57 103
57 154
58 83
58 117
58 144
59 69
59 79
59 81
59 130
59 135
60 106
60 152
60 158
61 83
61 103
61 116
61 151
61 155
62 90
63 111
63 127
63 136
63 151
63 156
64 82
64 102
64 134
65 135
65 140
66 115
67 115
67 119
67 138
68 96
68 155
68 159
69 96
69 113
69 140
70 88
70 101
70 130
70 138
71 77
71 79
71 108
71 113
71 128
71 140
72 76
72 102
72 140
73 132
73 133
73 134
74 77
74 114
74 156
75 113
76 88
76 115
76 123
76 139
77 78
77 112
77 144
77 147
78 82
78 85
78 86
78 94
79 83
79 110
79 129
79 150
80 95
80 142
81 103
81 146
82 110
82 127
83 105
83 127
83 149
83 158
84 104
84 128
85 91
85 123
85 129
85 149
85 151
86 94
86 129
86 136
87 126
87 139
88 89
88 115
88 123
88 150
89 123
89 155
90 114
91 95
91 104
92 144
92 147
92 155
93 94
93 107
93 125
93 150
94 125
94 138
95 125
96 119
96 133
97 126
98 122
98 134
99 106
99 115
99 136
99 139
99 142
99 146
100 123
101 102
101 142
102 153
103 105
103 154
103 155
104 135
105 118
105 131
105 156
106 143
106 146
107 135
107 154
109 121
109 139
110 117
110 147
110 158
111 126
111 147
111 154
112 116
112 129
112 156
113 144
114 128
115 123
115 134
115 150
116 123
116 149
117 127
117 149
118 128
118 137
119 135
120 131
120 137
121 152
122 132
122 136
122 137
122 147
122 149
125 144
129 142
129 145
131 147
132 144
133 154
133 159
134 148
135 140
135 150
136 139
137 144
138 152
138 154
139 149
141 148
145 154
147 153
155 157
