0 9
0 25
0 103
0 122
0 147
1 37
1 54
1 58
1 65
1 130
1 133
2 77
2 86
2 94
2 140
3 22
3 34
3 41
3 72
3 83
3 87
3 101
4 58
4 96
4 97
4 123
4 126
5 17
5 37
5 51
5 60
5 74
5 81
5 90
5 105
6 73
6 84
6 144
6 152
7 23
7 57
7 72
7 114
8 24
8 56
8 64
8 93
8 146
8 158
9 58
9 59
9 70
9 78
9 95
9 100
9 128
9 159
10 42
10 50
10 58
10 64
10 67
10 77
10 91
10 100
10 118
10 133
10 134
10 137
10 153
11 65
11 80
11 81
11 120
12 59
12 73
12 103
13 32
14 53
14 67
14 74
14 77
14 83
14 98
14 100
14 117
14 152
14 158
15 31
15 36
15 66
15 70
15 103
15 127
16 19
16 32
16 70
16 110
17 18
17 28
17 29
17 46
17 62
17 116
17 133
17 140
18 40
18 92
18 102
18 109
18 137
18 144
18 155
19 47
19 69
19 79
19 130
20 28
20 31
20 88
20 90
20 92
20 139
21 34
21 53
21 117
21 130
22 38
22 61
22 68
22 104
22 149
23 60
24 25
24 40
24 42
24 54
24 58
24 60
24 78
25 100
25 119
25 147
25 151
25 156
26 59
26 81
26 84
26 132
26 151
27 39
27 52
27 53
27 98
28 53
28 61
28 158
29 43
29 76
29 79
29 96
29 109
30 43
30 77
30 78
30 99
30 153
31 34
31 60
31 103
31 115
31 149
32 38
32 44
32 75
32 82
32 84
32 87
32 90
32 155
32 158
33 37
33 55
33 63
33 69
33 79
33 87
33 114
34 38
34 40
34 48
34 107
34 116
35 75
35 80
35 102
35 138
36 41
36 143
36 145
36 153
37 58
37 78
37 79
37 88
37 90
37 110
37 111
37 115
38 89
38 128
38 138
38 156
39 47
39 73
39 92
39 98
39 105
39 117
39 122
39 127
39 159
40 116
40 124
40 130
40 132
41 73
41 79
41 82
41 100
41 102
41 130
41 158
42 45
42 87
42 96
42 110
42 116
43 52
43 54
43 73
43 114
43 119
44 80
44 110
44 121
45 96
45 106
45 126
45 144
45 146
45 156
46 74
46 98
46 101
46 105
46 148
46 156
47 66
47 68
47 69
47 100
47 102
47 144
48 82
48 92
48 93
48 128
49 70
49 90
49 134
50 53
50 68
50 78
50 92
50 109
50 128
50 139
51 59
51 85
52 54
52 67
52 86
52 93
53 60
53 65
53 148
53 154
54 80
54 133
54 152
55 75
55 87
55 118
56 72
56 84
56 146
56 156
57 97
57 116
58 67
58 86
58 114
58 140
59 135
60 126
61 71
61 102
61 127
61 132
61 134
62 112
62 137
62 155
63 69
63 90
63 149
64 88
64 125
65 81
65 95
66 68
66 80
66 121
66 124
67 76
67 80
67 129
68 77
68 95
68 132
69 102
69 127
69 155
70 119
70 120
70 134
71 105
71 111
71 148
72 153
73 109
74 77
74 86
74 142
74 146
75 112
75 132
76 100
76 101
76 122
76 143
77 105
77 141
78 103
78 106
78 131
78 144
79 91
79 159
80 95
80 154
80 158
81 82
82 88
82 98
82 132
83 90
83 130
85 142
87 142
87 155
88 91
88 99
88 103
88 126
88 134
88 159
89 93
89 105
89 152
90 133
90 147
91 102
91 141
92 93
93 95
93 131
93 140
93 144
93 153
93 156
94 105
94 112
94 131
94 140
94 149
94 153
95 137
95 153
96 101
96 128
96 134
96 145
97 114
97 134
97 152
98 140
99 115
99 137
99 148
99 157
100 105
100 139
100 144
100 145
100 158
101 120
102 104
102 150
103 120
104 109
104 125
104 137
104 138
105 112
105 115
105 116
107 114
107 119
107 132
107 134
107 155
108 137
108 139
109 114
109 144
110 134
110 155
111 120
113 119
113 135
113 144
114 135
115 153
115 159
116 136
117 153
118 127
118 140
119 132
119 140
120 153
121 137
123 127
123 149
123 154
123 157
124 138
124 148
124 154
124 157
126 146
126 148
127 141
128 139
129 143
129 144
130 155
135 149
136 145
140 157
142 149
142 154
142 156
143 144
144 159
150 156
151 153
151 155
